Data path: /scratch/opt/lxu/CFLG/benchmarks/random_B
Instance: r_25_0.2_58.txt
Result path: /scratch/opt/lxu/CFLG/results/random_B
Solver: Gurobi
Time limit: 7200
Formulation: LEFPAI
Cover: Large
julia --project=. src/main.jl /scratch/opt/lxu/CFLG/benchmarks/random_B r_25_0.2_58.txt /scratch/opt/lxu/CFLG/results/random_B Gurobi 7200 LEFPAI Large
The latest version of Julia in the `release` channel is 1.11.6+0.x64.linux.gnu. You currently have `1.11.4+0.x64.linux.gnu` installed. Run:

  juliaup update

in your terminal shell to install Julia 1.11.6+0.x64.linux.gnu and update the `release` channel to that version.
/scratch/opt/lxu/CFLG/benchmarks/random_B Gurobi 7200.0 /scratch/opt/lxu/CFLG/results/random_B r_25_0.2_58.txt LEFPAI Large
/scratch/opt/lxu/CFLG/benchmarks/random_B/r_25_0.2_58.txt

 read graph
data loaded

problem_graph/original graph: node: 25/25 edge: 58/58 dlt: 1.3662485762083236 break_avg_len: 0.6831242881041618 break_max_len: 0.9946460943203358Vbar/V, Ebar/E(24, 25, 57, 58)
Set parameter TokenServer to value "solice01.zib.de"
Set parameter Threads to value 1
Set parameter OutputFlag to value 1
Gurobi Optimizer version 12.0.1 build v12.0.1rc0 (linux64 - "Debian GNU/Linux 12 (bookworm)")

CPU model: Intel(R) Xeon(R) Gold 5122 CPU @ 3.60GHz, instruction set [SSE2|AVX|AVX2|AVX512]
Thread count: 8 physical cores, 16 logical processors, using up to 1 threads

Non-default parameters:
Threads  1

Optimize a model with 83 rows, 174 columns and 290 nonzeros
Model fingerprint: 0xdf1dc813
Coefficient statistics:
  Matrix range     [1e+00, 1e+00]
  Objective range  [1e+00, 1e+00]
  Bounds range     [1e+00, 1e+00]
  RHS range        [1e+00, 1e+00]
Presolve removed 2 rows and 2 columns
Presolve time: 0.00s
Presolved: 81 rows, 172 columns, 286 nonzeros

Iteration    Objective       Primal Inf.    Dual Inf.      Time
       0    5.8000000e+01   5.800000e+01   0.000000e+00      0s
      54    2.4000000e+01   0.000000e+00   0.000000e+00      0s

Solved in 54 iterations and 0.00 seconds (0.00 work units)
Optimal objective  2.400000000e+01

User-callback calls 101, time in user-callback 0.00 sec
elapsed CPU time: 1.305332 seconds
Set parameter TokenServer to value "solice01.zib.de"
Set parameter Threads to value 1
Set parameter OutputFlag to value 1
Set parameter MIPGap to value 0.0001
Set parameter TimeLimit to value 7198.694668

 more cuts: false 1.3662485762083236 false
is_attach:trueformulation:LEFPAI0 58 25

 model loaded

Gurobi Optimizer version 12.0.1 build v12.0.1rc0 (linux64 - "Debian GNU/Linux 12 (bookworm)")

CPU model: Intel(R) Xeon(R) Gold 5122 CPU @ 3.60GHz, instruction set [SSE2|AVX|AVX2|AVX512]
Thread count: 8 physical cores, 16 logical processors, using up to 1 threads

Non-default parameters:
TimeLimit  7198.694668
Threads  1

Optimize a model with 2302 rows, 1962 columns and 6628 nonzeros
Model fingerprint: 0x986acce2
Model has 1705 simple general constraints
  1705 INDICATOR
Variable types: 141 continuous, 1821 integer (1821 binary)
Coefficient statistics:
  Matrix range     [3e-01, 1e+00]
  Objective range  [1e+00, 1e+00]
  Bounds range     [3e-01, 1e+00]
  RHS range        [3e-01, 6e+00]
  GenCon rhs range [2e-03, 1e+00]
  GenCon coe range [1e+00, 1e+00]
Presolve added 982 rows and 0 columns
Presolve removed 0 rows and 88 columns
Presolve time: 0.07s
Presolved: 3284 rows, 1874 columns, 10777 nonzeros
Variable types: 82 continuous, 1792 integer (1792 binary)
Found heuristic solution: objective 56.0000000
Found heuristic solution: objective 40.0000000
Found heuristic solution: objective 23.0000000
Found heuristic solution: objective 22.0000000

Root relaxation: objective 1.500000e+00, 1159 iterations, 0.03 seconds (0.05 work units)

    Nodes    |    Current Node    |     Objective Bounds      |     Work
 Expl Unexpl |  Obj  Depth IntInf | Incumbent    BestBd   Gap | It/Node Time

     0     0    1.50000    0   60   22.00000    1.50000  93.2%     -    0s
H    0     0                      14.0000000    1.50000  89.3%     -    0s
H    0     0                       6.0000000    1.50000  75.0%     -    0s
     0     0    2.00000    0  152    6.00000    2.00000  66.7%     -    0s
H    0     0                       5.0000000    2.00000  60.0%     -    0s
     0     0    2.00000    0  182    5.00000    2.00000  60.0%     -    0s
     0     0    2.00000    0  199    5.00000    2.00000  60.0%     -    0s
     0     0    2.00000    0  199    5.00000    2.00000  60.0%     -    0s
     0     0    2.00000    0   86    5.00000    2.00000  60.0%     -    0s
     0     0    2.00000    0   64    5.00000    2.00000  60.0%     -    0s
     0     0    2.00000    0   90    5.00000    2.00000  60.0%     -    1s
     0     0    2.00000    0   62    5.00000    2.00000  60.0%     -    1s
     0     2    2.00000    0   62    5.00000    2.00000  60.0%     -    1s
H   81    20                       4.0000000    2.00000  50.0%  94.1    1s
   472   215    2.89593   31   52    4.00000    2.00000  50.0%  98.6    5s
   824   359    3.00000   16  198    4.00000    2.14281  46.4%  86.8   10s
   833   365    3.00000   21  223    4.00000    2.14281  46.4%  85.9   15s
   861   381    2.14696   21  122    4.00000    2.14281  46.4%   167   20s
   924   391    3.00000   28   80    4.00000    2.14281  46.4%   176   25s
  1024   388    3.00000   30   64    4.00000    2.14281  46.4%   186   30s
  1214   367    3.00000   30  143    4.00000    2.14286  46.4%   187   35s
  1463   366    3.00000   27   15    4.00000    2.40000  40.0%   182   40s
  1857   320    3.00000   26   47    4.00000    2.53931  36.5%   170   45s
  2332   310    3.00000   31   66    4.00000    3.00000  25.0%   155   50s
  2851   255    3.00000   29   42    4.00000    3.00000  25.0%   145   55s
  3421   176    3.00000   22   69    4.00000    3.00000  25.0%   137   60s
  3878   164     cutoff   33         4.00000    3.00000  25.0%   134   65s
  4357   162    3.00000   24   59    4.00000    3.00000  25.0%   133   70s
  4893   114    3.00000   26   53    4.00000    3.00000  25.0%   131   75s
  5280    53    3.00000   40   49    4.00000    3.00000  25.0%   131   80s

Cutting planes:
  Gomory: 3
  Cover: 63
  Implied bound: 9
  Clique: 5
  MIR: 13
  StrongCG: 3
  Flow cover: 25
  GUB cover: 39
  Zero half: 5
  RLT: 2
  Relax-and-lift: 11
  BQP: 1

Explored 5567 nodes (738230 simplex iterations) in 82.34 seconds (104.03 work units)
Thread count was 1 (of 16 available processors)

Solution count 10: 4 4 5 ... 56

Optimal solution found (tolerance 1.00e-04)
Best objective 4.000000000000e+00, best bound 4.000000000000e+00, gap 0.0000%

User-callback calls 32859, time in user-callback 0.03 sec

 sepatime0 0 0
4.0
Stat(MathOptInterface.OPTIMAL, 4.0, 4.0, 0.0, 0.0, 1.305332, 82.34074711799622, 5567, Main.CFLG.LEFPAI, "", #undef)
